nNurses = 78;
nHours = 31;
minHours = 9;
maxHours = 10;
maxConsec = 6;
maxPresence = 22;
demand = [19, 17, 14, 10, 13, 9, 10, 13, 18, 20, 19, 23, 23, 22, 22, 21, 22, 22, 22, 20, 21, 26, 23, 23, 21, 21, 22, 17, 12, 15, 19];
